16 32
1 2 4
1 5 3
2 3 1
2 6 3
3 4 2
3 7 2
4 8 3
5 6 5
5 9 2
6 7 5
6 10 5
7 8 3
7 11 5
8 12 2
9 10 1
9 13 4
10 11 3
10 14 5
11 12 1
11 15 2
12 16 4
13 14 2
14 15 5
15 16 5
1 13 5
2 14 1
3 15 4
4 16 4
1 4 2
5 8 4
9 12 1
13 16 2
